\ Model _copy
\ LP format - for model browsing. Use MPS format to capture full model detail.
Minimize
 
Subject To
 gas_balance_rt(ng101,s2,t1): gshed(ng101,s2,t1) + gprodUp(gw1,s2,t1)
   - gprodDn(gw1,s2,t1) = 144
 gprodUp_max(gw1,s2,t1): gprodUp(gw1,s2,t1) <= 16
 SOS1_gas_shed_rt(ng101,s2,t1): gshed(ng101,s2,t1)
   + SOS1_gas_shed_rt(ng101,s2,t1) = 0
Bounds
 gshed(ng101,s2,t1) free
 gprodUp(gw1,s2,t1) free
End
